\ Model prob_122
\ LP format - for model browsing. Use MPS format to capture full model detail.
Minimize
  16 x_1_2 + 48 x_1_3 + 42 x_1_4 + 50 x_1_5 + 8 x_1_6 + 27 x_2_1 + 23 x_2_3
   + 37 x_2_4 + 39 x_2_5 + 29 x_2_6 + 49 x_3_1 + 39 x_3_2 + 33 x_3_4
   + 50 x_3_5 + 6 x_3_6 + 23 x_4_1 + 49 x_4_2 + 46 x_4_3 + 50 x_4_5
   + 6 x_4_6 + 45 x_5_1 + 47 x_5_2 + 48 x_5_3 + 26 x_5_4 + 39 x_5_6
   + 33 x_6_1 + 11 x_6_2 + 9 x_6_3 + 4 x_6_4 + 12 x_6_5
Subject To
 R0: - x_1_2 - x_1_3 - x_1_4 - x_1_5 - x_1_6 + x_2_1 + x_3_1 + x_4_1
   + x_5_1 + x_6_1 >= 32
 R1: x_1_2 - x_2_1 - x_2_3 - x_2_4 - x_2_5 - x_2_6 + x_3_2 + x_4_2 + x_5_2
   + x_6_2 >= 444
 R2: x_1_3 + x_2_3 - x_3_1 - x_3_2 - x_3_4 - x_3_5 - x_3_6 + x_4_3 + x_5_3
   + x_6_3 >= -396
 R3: x_1_4 + x_2_4 + x_3_4 - x_4_1 - x_4_2 - x_4_3 - x_4_5 - x_4_6 + x_5_4
   + x_6_4 >= 11
 R4: x_1_5 + x_2_5 + x_3_5 + x_4_5 - x_5_1 - x_5_2 - x_5_3 - x_5_4 - x_5_6
   + x_6_5 >= 11
 R5: x_1_6 + x_2_6 + x_3_6 + x_4_6 + x_5_6 - x_6_1 - x_6_2 - x_6_3 - x_6_4
   - x_6_5 >= -137
Bounds
End
